SYSTEM = 1.5

NPAR = 7

ISIF = 2

- - Ionic Relaxation - - - - - - - - - - -

ISMEAR = 0 ; SIGMA  = 0.01

NSW = 0  ; IBRION = 2

ISPIN = 1

- - Electronic Relaxation - - - - - - - - 

ENCUT = 500                   eV(29.4 Ryd)

EDIFF = 1E-5                  Specifies the global break condition for the electronic SC-loop

ALGO = Exact                   Algorithm: it can be FAST or NORMAL

LORBIT = 11                  Partial DOS projected onto molecular orbitals, creates PROCAR

LVDW= .TRUE.                  Van der waals interaction correction to GGA functional

- - - - - - - - - - - - - - - - - - - - -

LWAVE = .F.        wavecar
LCHARG = .F.       chgcar
LAECHG = .FALSE.       for BADER
LVHAR = .FALSE.        for LOCPOT
LOPTICS = .TRUE.

- - - - - - - - - - - - - - - - - - - - -

NEDOS = 3000

ICHARG = 11

NELM = 1

CSHIFT = 0.1

NBANDS = 128

- - - - - - - - - - - - - - - - - - - - - -

NCORE = 4

KPAR = 2 

