k-points along high symmetry lines
40  ! intersections
Line-mode
r
 0.0000000000   0.0000000000   0.0000000000   ! G
 0.0000000000   0.0000000000   0.5000000000   ! X

 0.0000000000   0.0000000000   0.5000000000   ! X
 0.5000000000   0.5000000000  -0.5000000000   ! M

 0.5000000000   0.5000000000  -0.5000000000   ! M
 0.0000000000   0.0000000000   0.0000000000   ! G

 0.0000000000   0.0000000000   0.0000000000   ! G
 0.0000000000   0.5000000000   0.0000000000   ! N

 0.0000000000   0.5000000000   0.0000000000   ! N
 0.2500000000   0.2500000000   0.2500000000   ! P

 0.2500000000   0.2500000000   0.2500000000   ! P
 0.0000000000   0.0000000000   0.5000000000   ! X
