Ag2 Te1                                 
   1.00000000000000     
     2.3639383963541238    2.3639383963541243    3.3420766155848405
     2.3639383963541243   -2.3639383963541243   -3.3420766155848400
    -2.3639383963541243    2.3639383963541243   -3.3420766155848405
   Ag   Te
     2     1
Direct
  0.5000000000000000  0.7500000000000000  0.2500000000000000
  0.5000000000000000  0.2500000000000000  0.7500000000000000
  0.0000000000000000  0.0000000000000000  0.0000000000000000
 
  0.00000000E+00  0.00000000E+00  0.00000000E+00
  0.00000000E+00  0.00000000E+00  0.00000000E+00
  0.00000000E+00  0.00000000E+00  0.00000000E+00
